# Solution for model GasLib-40
# Objective value = 1.0739687205995105e+01
loadshed[innode_1] 0
loadshed[innode_2] 0
loadshed[innode_3] 0
loadshed[innode_4] 0
loadshed[innode_5] 0
loadshed[innode_6] 0
loadshed[innode_7] 0
loadshed[innode_8] 0
loadshed[source_1] -2.6969885009367811e-01
loadshed[source_2] 7.4666339682340932e-02
loadshed[source_3] 2.6296639829447754e-01
loadshed[sink_1] 0
loadshed[sink_2] 0
loadshed[sink_3] 0
loadshed[sink_4] 0
loadshed[sink_5] 0
loadshed[sink_6] 0
loadshed[sink_7] 0
loadshed[sink_8] 0
loadshed[sink_9] 0
loadshed[sink_10] 0
loadshed[sink_11] 0
loadshed[sink_12] 6.5669424953855415e-01
loadshed[sink_13] 0
loadshed[sink_14] 0
loadshed[sink_15] 0
loadshed[sink_16] 0
loadshed[sink_17] 0
loadshed[sink_18] 0
loadshed[sink_19] 0
loadshed[sink_20] 0
loadshed[sink_21] 0
loadshed[sink_22] 0
loadshed[sink_23] 0
loadshed[sink_24] 0
loadshed[sink_25] 0
loadshed[sink_26] 0
loadshed[sink_27] 0
loadshed[sink_28] 0
loadshed[sink_29] 0
flow[source_1,sink_3] 2.0072704390543458e+02
flow[innode_1,sink_16] 1.6354166666666970e+01
flow[innode_6,sink_13] -2.0386801585148078e+00
flow[sink_13,sink_14] -1.8392846825181476e+01
flow[sink_14,sink_10] -3.4747013491848143e+01
flow[sink_25,sink_26] 1.7623026083787141e+02
flow[sink_26,sink_9] 1.2387434631258907e+02
flow[sink_9,sink_18] 1.0752017964592240e+02
flow[sink_26,sink_4] 3.6001747858615694e+01
flow[sink_4,sink_20] -4.1988385289468738e+01
flow[sink_18,sink_6] 9.1166012979255726e+01
flow[sink_25,innode_8] -1.6801871057209823e+02
flow[sink_6,sink_7] 42.1035129792549
flow[sink_6,sink_22] 3.2708333333333641e+01
flow[sink_7,sink_24] 3.8322812794004896e+01
flow[sink_22,sink_1] 1.6354166666666970e+01
flow[sink_24,sink_21] 2.1968646127338229e+01
flow[sink_21,sink_12] 5.6144794606715616e+00
flow[sink_7,sink_5] -1.2573466481416091e+01
flow[sink_5,sink_17] -2.8927633148082691e+01
flow[sink_17,sink_4] -6.1635966481417881e+01
flow[sink_17,sink_8] 1.6354166666668334e+01
flow[sink_3,sink_23] 16.3541666666697
flow[sink_8,sink_20] 0
flow[sink_25,sink_20] 5.8342551956135367e+01
flow[sink_25,sink_15] -8.0869588730061267e+01
flow[sink_15,sink_29] -9.7223755396727938e+01
flow[sink_29,sink_28] 1.6354166666667879e+01
flow[sink_29,sink_2] 1.6354166666684250e+01
flow[sink_2,sink_15] 0
flow[sink_29,innode_7] -1.4628625539674658e+02
flow[innode_4,sink_19] 0
flow[sink_19,innode_3] 4.0898688824257917e+01
flow[innode_4,innode_5] 1.1651784682518208e+02
flow[sink_27,innode_5] -1.1651784682518208e+02
flow[sink_27,sink_19] 1.0016368015851540e+02
flow[sink_10,sink_11] 3.2708333333333641e+01
flow[sink_10,innode_2] -4.2910824667590532e+01
flow[sink_10,innode_3] -4.0898688824257917e+01
flow[innode_6,sink_25] 2.0386801585148078e+00
flow[sink_11,innode_1] 1.6354166666666970e+01
flow[sink_19,innode_2] 4.2910824667590532e+01
flow[source_3,innode_4] 1.1651784682518208e+02
flow[source_2,innode_7] 1.4628625539674658e+02
flow[sink_3,innode_8] 1.6801871057209823e+02
pressure[innode_1] 7.5395953236684818e+01
pressure[innode_2] 7.7815668855480808e+01
pressure[innode_3] 77.7251033403536
pressure[innode_4] 81.01325
pressure[innode_5] 8.0933102880948553e+01
pressure[innode_6] 7.3860015126867353e+01
pressure[innode_7] 81.01325
pressure[innode_8] 8.0342296172734265e+01
pressure[source_1] 81.01325
pressure[source_2] 81.01325
pressure[source_3] 81.01325
pressure[sink_1] 4.5608139853989258e+01
pressure[sink_2] 7.6686396245420482e+01
pressure[sink_3] 8.0342296172734265e+01
pressure[sink_4] 5.6870865950921470e+01
pressure[sink_5] 5.2360442975724681e+01
pressure[sink_6] 4.7709217464376628e+01
pressure[sink_7] 4.7131236590756849e+01
pressure[sink_8] 5.3898257354905155e+01
pressure[sink_9] 5.4034022012653409e+01
pressure[sink_10] 7.5547654544288363e+01
pressure[sink_11] 7.5395953236684818e+01
pressure[sink_12] 1.0132500000000002e+00
pressure[sink_13] 7.3871254029886131e+01
pressure[sink_14] 7.3904169596003925e+01
pressure[sink_15] 7.4252311433301159e+01
pressure[sink_16] 7.4374303401867138e+01
pressure[sink_17] 5.4515342550318778e+01
pressure[sink_18] 5.0143621447814731e+01
pressure[sink_19] 7.7815668855480808e+01
pressure[sink_20] 5.9951329131093068e+01
pressure[sink_21] 3.0111890737647533e+00
pressure[sink_22] 4.6671908996344264e+01
pressure[sink_23] 8.0177578161074479e+01
pressure[sink_24] 3.2544714183184715e+00
pressure[sink_25] 7.3860015126867353e+01
pressure[sink_26] 61.4482213503489
pressure[sink_27] 7.9966220054130346e+01
pressure[sink_28] 7.6805383470266960e+01
pressure[sink_29] 7.7100665743884136e+01
interdiction[source_1,sink_3] 0
interdiction[innode_1,sink_16] 0
interdiction[innode_6,sink_13] 0
interdiction[sink_13,sink_14] 0
interdiction[sink_14,sink_10] 0
interdiction[sink_25,sink_26] 0
interdiction[sink_26,sink_9] 0
interdiction[sink_9,sink_18] 0
interdiction[sink_26,sink_4] 0
interdiction[sink_4,sink_20] 0
interdiction[sink_18,sink_6] 0
interdiction[sink_25,innode_8] 0
interdiction[sink_6,sink_7] 0
interdiction[sink_6,sink_22] 0
interdiction[sink_7,sink_24] 0
interdiction[sink_22,sink_1] 0
interdiction[sink_24,sink_21] 0
interdiction[sink_21,sink_12] 0
interdiction[sink_7,sink_5] 0
interdiction[sink_5,sink_17] 0
interdiction[sink_17,sink_4] 0
interdiction[sink_17,sink_8] 0
interdiction[sink_3,sink_23] 0
interdiction[sink_8,sink_20] 1
interdiction[sink_25,sink_20] 0
interdiction[sink_25,sink_15] 0
interdiction[sink_15,sink_29] 0
interdiction[sink_29,sink_28] 0
interdiction[sink_29,sink_2] 0
interdiction[sink_2,sink_15] 1
interdiction[sink_29,innode_7] 0
interdiction[innode_4,sink_19] 1
interdiction[sink_19,innode_3] 0
interdiction[innode_4,innode_5] 0
interdiction[sink_27,innode_5] 0
interdiction[sink_27,sink_19] 0
interdiction[sink_10,sink_11] 0
interdiction[sink_10,innode_2] 0
interdiction[sink_10,innode_3] 0
interdiction[innode_6,sink_25] 0
interdiction[sink_11,innode_1] 0
interdiction[sink_19,innode_2] 0
interdiction[source_3,innode_4] 0
interdiction[source_2,innode_7] 0
interdiction[sink_3,innode_8] 0
WCcheckFlow[source_1,sink_3] 39
WCcheckFlow[innode_1,sink_16] 1
WCcheckFlow[innode_6,sink_13] 13
WCcheckFlow[sink_13,sink_14] 12
WCcheckFlow[sink_14,sink_10] 11
WCcheckFlow[sink_25,sink_26] 15
WCcheckFlow[sink_26,sink_9] 12
WCcheckFlow[sink_9,sink_18] 11
WCcheckFlow[sink_26,sink_4] 2
WCcheckFlow[sink_4,sink_20] 1
WCcheckFlow[sink_18,sink_6] 10
WCcheckFlow[sink_25,innode_8] -36
WCcheckFlow[sink_6,sink_7] 7
WCcheckFlow[sink_6,sink_22] 2
WCcheckFlow[sink_7,sink_24] 3
WCcheckFlow[sink_22,sink_1] 1
WCcheckFlow[sink_24,sink_21] 2
WCcheckFlow[sink_21,sink_12] 1
WCcheckFlow[sink_7,sink_5] 3
WCcheckFlow[sink_5,sink_17] 2
WCcheckFlow[sink_17,sink_4] 0
WCcheckFlow[sink_17,sink_8] 1
WCcheckFlow[sink_3,sink_23] 1
WCcheckFlow[sink_8,sink_20] 0
WCcheckFlow[sink_25,sink_20] 0
WCcheckFlow[sink_25,sink_15] 6
WCcheckFlow[sink_15,sink_29] 5
WCcheckFlow[sink_29,sink_28] 1
WCcheckFlow[sink_29,sink_2] 1
WCcheckFlow[sink_2,sink_15] 0
WCcheckFlow[sink_29,innode_7] 2
WCcheckFlow[innode_4,sink_19] 0
WCcheckFlow[sink_19,innode_3] -5
WCcheckFlow[innode_4,innode_5] -2
WCcheckFlow[sink_27,innode_5] 3
WCcheckFlow[sink_27,sink_19] -4
WCcheckFlow[sink_10,sink_11] 3
WCcheckFlow[sink_10,innode_2] 1
WCcheckFlow[sink_10,innode_3] 6
WCcheckFlow[innode_6,sink_25] -14
WCcheckFlow[sink_11,innode_1] 2
WCcheckFlow[sink_19,innode_2] 0
WCcheckFlow[source_3,innode_4] -1
WCcheckFlow[source_2,innode_7] -1
WCcheckFlow[sink_3,innode_8] 37
